\ LP format - for model browsing. Use MPS format to capture full model detail.
Maximize
 [ 18 x[0] ^2 - 14 x[0] * x[2] - 2 x[0] * x[3] - 20 x[0] * x[4]
   + 6 x[0] * x[5] - 10 x[0] * x[6] - 6 x[0] * x[7] - 12 x[0] * x[8]
   - 4 x[0] * x[9] - 16 x[0] * x[10] - 8 x[0] * x[12] - 10 x[0] * x[13]
   + 6 x[0] * x[14] - 10 x[0] * x[15] + 8 x[0] * x[16] - 16 x[0] * x[17]
   + 10 x[0] * x[18] - 4 x[0] * x[19] + 8 x[0] * x[20] - 12 x[0] * x[21]
   - 6 x[0] * x[22] - 2 x[0] * x[23] + 18 x[0] * x[24] - 4 x[0] * x[25]
   - 6 x[0] * x[26] + 16 x[0] * x[27] + 6 x[0] * x[28] + 6 x[0] * x[29]
   + 4 x[0] * x[30] + 4 x[0] * x[31] - 16 x[0] * x[32] + 12 x[0] * x[33]
   - 20 x[0] * x[34] - 16 x[0] * x[35] - 4 x[0] * x[36] - 8 x[0] * x[37]
   + 4 x[0] * x[39] + 8 x[0] * x[40] + 4 x[0] * x[41] - 16 x[0] * x[42]
   - 20 x[0] * x[43] + 16 x[0] * x[44] + 10 x[0] * x[45] - 10 x[0] * x[46]
   + 2 x[0] * x[47] + 14 x[0] * x[48] - 20 x[0] * x[49] + 18 x[0] * x[50]
   + 2 x[0] * x[51] - 10 x[0] * x[52] - 8 x[0] * x[53] - 20 x[0] * x[54]
   - 14 x[0] * x[55] + 8 x[0] * x[56] - 6 x[0] * x[57] - 20 x[0] * x[58]
   - 6 x[0] * x[59] - 12 x[1] ^2 + 14 x[1] * x[2] - 16 x[1] * x[3]
   + 4 x[1] * x[4] - 8 x[1] * x[5] - 18 x[1] * x[6] + 14 x[1] * x[7]
   - 6 x[1] * x[9] + 4 x[1] * x[10] + 2 x[1] * x[11] + 4 x[1] * x[12]
   - 8 x[1] * x[13] - 12 x[1] * x[14] - 18 x[1] * x[15] - 8 x[1] * x[16]
   + 14 x[1] * x[17] + 10 x[1] * x[18] + 20 x[1] * x[19] + 16 x[1] * x[20]
   - 4 x[1] * x[21] - 20 x[1] * x[22] + 16 x[1] * x[23] + 8 x[1] * x[24]
   + 20 x[1] * x[25] - 18 x[1] * x[26] - 8 x[1] * x[27] + 18 x[1] * x[28]
   + 2 x[1] * x[29] + 10 x[1] * x[30] - 16 x[1] * x[31] + 10 x[1] * x[32]
   + 2 x[1] * x[33] - 12 x[1] * x[34] - 6 x[1] * x[35] + 14 x[1] * x[36]
   - 8 x[1] * x[37] - 12 x[1] * x[38] - 6 x[1] * x[39] + 6 x[1] * x[40]
   + 12 x[1] * x[41] + 18 x[1] * x[42] - 10 x[1] * x[43] - 16 x[1] * x[44]
   - 16 x[1] * x[45] - 8 x[1] * x[46] - 4 x[1] * x[47] + 20 x[1] * x[48]
   - 20 x[1] * x[49] - 4 x[1] * x[50] + 14 x[1] * x[51] - 2 x[1] * x[52]
   - 4 x[1] * x[53] + 8 x[1] * x[54] - 16 x[1] * x[55] - 4 x[1] * x[56]
   + 10 x[1] * x[57] - 4 x[1] * x[58] - 8 x[1] * x[59] + 6 x[2] ^2
   - 18 x[2] * x[3] + 18 x[2] * x[4] + 2 x[2] * x[5] + 20 x[2] * x[6]
   - 4 x[2] * x[7] + 2 x[2] * x[8] - 14 x[2] * x[9] - 8 x[2] * x[10]
   - 4 x[2] * x[12] + 4 x[2] * x[13] - 10 x[2] * x[14] - 18 x[2] * x[15]
   - 8 x[2] * x[16] + 8 x[2] * x[17] + 16 x[2] * x[18] - 4 x[2] * x[19]
   + 16 x[2] * x[20] - 18 x[2] * x[21] + 14 x[2] * x[22] - 4 x[2] * x[23]
   - 2 x[2] * x[24] + 6 x[2] * x[25] + 18 x[2] * x[26] + 2 x[2] * x[27]
   - 18 x[2] * x[28] + 16 x[2] * x[29] - 10 x[2] * x[30] + 2 x[2] * x[31]
   - 4 x[2] * x[32] + 18 x[2] * x[33] + 4 x[2] * x[34] - 8 x[2] * x[35]
   - 2 x[2] * x[36] + 4 x[2] * x[37] + 10 x[2] * x[38] - 20 x[2] * x[39]
   + 10 x[2] * x[40] - 18 x[2] * x[41] - 14 x[2] * x[43] + 8 x[2] * x[44]
   + 10 x[2] * x[45] - 10 x[2] * x[46] - 20 x[2] * x[47] - 2 x[2] * x[48]
   - 16 x[2] * x[49] - 4 x[2] * x[50] - 6 x[2] * x[51] - 12 x[2] * x[52]
   - 12 x[2] * x[53] + 10 x[2] * x[54] + 6 x[2] * x[55] + 14 x[2] * x[56]
   + 8 x[2] * x[57] - 14 x[2] * x[58] + 18 x[2] * x[59] + 20 x[3] ^2
   - 10 x[3] * x[4] + 16 x[3] * x[5] + 2 x[3] * x[6] - 18 x[3] * x[7]
   + 20 x[3] * x[8] - 4 x[3] * x[9] + 18 x[3] * x[10] - 4 x[3] * x[12]
   - 14 x[3] * x[13] - 6 x[3] * x[14] + 2 x[3] * x[15] + 6 x[3] * x[16]
   + 20 x[3] * x[17] - 6 x[3] * x[18] + 20 x[3] * x[19] - 10 x[3] * x[20]
   - 6 x[3] * x[21] - 10 x[3] * x[22] - 16 x[3] * x[23] + 12 x[3] * x[24]
   - 18 x[3] * x[25] + 18 x[3] * x[26] + 4 x[3] * x[27] + 18 x[3] * x[28]
   - 20 x[3] * x[29] - 12 x[3] * x[30] - 2 x[3] * x[31] - 14 x[3] * x[32]
   + 10 x[3] * x[33] - 2 x[3] * x[34] - 4 x[3] * x[35] + 4 x[3] * x[36]
   - 20 x[3] * x[37] + 4 x[3] * x[39] - 2 x[3] * x[40] - 2 x[3] * x[41]
   - 18 x[3] * x[42] + 14 x[3] * x[43] + 4 x[3] * x[44] - 2 x[3] * x[45]
   - 4 x[3] * x[46] - 10 x[3] * x[47] - 2 x[3] * x[48] + 10 x[3] * x[49]
   - 10 x[3] * x[50] + 10 x[3] * x[51] - 18 x[3] * x[52] + 2 x[3] * x[53]
   + 14 x[3] * x[54] + 16 x[3] * x[55] + 4 x[3] * x[56] + 10 x[3] * x[57]
   - 2 x[3] * x[58] + 2 x[3] * x[59] + 16 x[4] ^2 + 2 x[4] * x[5]
   + 4 x[4] * x[6] + 10 x[4] * x[7] + 6 x[4] * x[8] + 8 x[4] * x[9]
   + 16 x[4] * x[10] - 14 x[4] * x[11] - 8 x[4] * x[13] - 2 x[4] * x[14]
   - 2 x[4] * x[15] - 10 x[4] * x[16] + 2 x[4] * x[17] - 10 x[4] * x[18]
   + 14 x[4] * x[19] - 4 x[4] * x[20] + 18 x[4] * x[22] + 20 x[4] * x[23]
   - 4 x[4] * x[24] - 20 x[4] * x[25] + 8 x[4] * x[27] + 4 x[4] * x[28]
   - 8 x[4] * x[29] + 20 x[4] * x[30] + 2 x[4] * x[31] + 18 x[4] * x[32]
   + 16 x[4] * x[33] - 2 x[4] * x[34] + 12 x[4] * x[35] - 4 x[4] * x[36]
   - 20 x[4] * x[37] + 2 x[4] * x[38] - 18 x[4] * x[39] + 8 x[4] * x[40]
   - 2 x[4] * x[41] - 10 x[4] * x[42] - 12 x[4] * x[43] + 10 x[4] * x[44]
   + 8 x[4] * x[45] + 8 x[4] * x[46] - 20 x[4] * x[47] - 10 x[4] * x[48]
   + 18 x[4] * x[49] + 14 x[4] * x[50] + 6 x[4] * x[51] - 2 x[4] * x[52]
   + 12 x[4] * x[53] + 6 x[4] * x[54] + 14 x[4] * x[55] + 14 x[4] * x[56]
   - 16 x[4] * x[57] - 4 x[4] * x[59] + 2 x[5] ^2 - 14 x[5] * x[6]
   - 16 x[5] * x[7] - 4 x[5] * x[8] - 10 x[5] * x[9] + 20 x[5] * x[10]
   - 10 x[5] * x[12] + 8 x[5] * x[13] - 10 x[5] * x[14] + 10 x[5] * x[15]
   - 12 x[5] * x[16] + 6 x[5] * x[17] - 20 x[5] * x[18] + 4 x[5] * x[19]
   - 16 x[5] * x[20] + 12 x[5] * x[21] - 6 x[5] * x[22] - 18 x[5] * x[23]
   - 16 x[5] * x[24] - 16 x[5] * x[25] - 6 x[5] * x[26] + 14 x[5] * x[27]
   - 8 x[5] * x[28] + 12 x[5] * x[29] - 6 x[5] * x[30] + 18 x[5] * x[31]
   + 16 x[5] * x[32] + 12 x[5] * x[33] + 8 x[5] * x[34] - 14 x[5] * x[35]
   - 6 x[5] * x[36] + 16 x[5] * x[37] - 10 x[5] * x[38] + 10 x[5] * x[39]
   - 16 x[5] * x[40] - 10 x[5] * x[41] - 10 x[5] * x[42] - 4 x[5] * x[43]
   + 20 x[5] * x[44] - 16 x[5] * x[46] - 12 x[5] * x[47] - 14 x[5] * x[48]
   - 16 x[5] * x[49] + 12 x[5] * x[50] - 8 x[5] * x[51] + 18 x[5] * x[52]
   - 14 x[5] * x[53] - 6 x[5] * x[54] - 18 x[5] * x[55] - 10 x[5] * x[56]
   + 8 x[5] * x[57] + 16 x[5] * x[58] + 2 x[5] * x[59] - 4 x[6] ^2
   + 10 x[6] * x[7] + 20 x[6] * x[8] - 14 x[6] * x[9] + 20 x[6] * x[10]
   - 20 x[6] * x[11] - 20 x[6] * x[12] - 20 x[6] * x[13] - 4 x[6] * x[14]
   + 12 x[6] * x[15] - 14 x[6] * x[16] - 16 x[6] * x[17] + 6 x[6] * x[18]
   + 4 x[6] * x[19] + 2 x[6] * x[20] - 6 x[6] * x[21] + 2 x[6] * x[22]
   - 6 x[6] * x[24] + 20 x[6] * x[25] + 12 x[6] * x[26] - 4 x[6] * x[27]
   + 2 x[6] * x[28] + 6 x[6] * x[29] + 14 x[6] * x[30] - 12 x[6] * x[31]
   - 8 x[6] * x[32] - 4 x[6] * x[33] - 20 x[6] * x[34] - 20 x[6] * x[35]
   - 2 x[6] * x[36] - 2 x[6] * x[37] + 10 x[6] * x[38] - 4 x[6] * x[39]
   + 4 x[6] * x[40] + 10 x[6] * x[41] - 2 x[6] * x[42] + 6 x[6] * x[43]
   + 10 x[6] * x[44] + 16 x[6] * x[45] - 4 x[6] * x[46] + 18 x[6] * x[47]
   - 20 x[6] * x[48] - 18 x[6] * x[49] + 4 x[6] * x[51] - 2 x[6] * x[52]
   - 18 x[6] * x[53] - 18 x[6] * x[54] + 12 x[6] * x[55] - 20 x[6] * x[56]
   + 16 x[6] * x[57] - 14 x[6] * x[58] + 4 x[6] * x[59] - 16 x[7] ^2
   - 4 x[7] * x[8] + 10 x[7] * x[9] - 16 x[7] * x[10] - 18 x[7] * x[11]
   + 12 x[7] * x[12] + 4 x[7] * x[13] - 10 x[7] * x[14] - 8 x[7] * x[15]
   - 14 x[7] * x[16] + 2 x[7] * x[17] + 2 x[7] * x[18] + 10 x[7] * x[19]
   + 8 x[7] * x[20] - 20 x[7] * x[21] + 18 x[7] * x[22] - 8 x[7] * x[23]
   - 2 x[7] * x[24] + 20 x[7] * x[25] + 12 x[7] * x[26] - 8 x[7] * x[27]
   + 14 x[7] * x[28] + 20 x[7] * x[29] - 18 x[7] * x[30] - 18 x[7] * x[31]
   + 12 x[7] * x[32] - 18 x[7] * x[33] - 12 x[7] * x[34] + 16 x[7] * x[35]
   + 16 x[7] * x[36] + 20 x[7] * x[37] - 20 x[7] * x[38] - 8 x[7] * x[39]
   + 8 x[7] * x[40] - 16 x[7] * x[41] - 6 x[7] * x[42] + 10 x[7] * x[44]
   + 6 x[7] * x[45] + 12 x[7] * x[46] + 16 x[7] * x[47] - 14 x[7] * x[48]
   - 6 x[7] * x[49] + 4 x[7] * x[50] + 16 x[7] * x[51] - 6 x[7] * x[52]
   - 12 x[7] * x[54] + 14 x[7] * x[55] - 2 x[7] * x[56] + 20 x[7] * x[57]
   - 16 x[7] * x[58] - 8 x[7] * x[59] + 4 x[8] ^2 - 4 x[8] * x[9]
   - 16 x[8] * x[10] - 10 x[8] * x[11] - 8 x[8] * x[12] - 20 x[8] * x[13]
   + 12 x[8] * x[14] + 4 x[8] * x[15] - 4 x[8] * x[16] + 2 x[8] * x[17]
   + 6 x[8] * x[18] - 8 x[8] * x[19] - 10 x[8] * x[20] + 16 x[8] * x[21]
   + 18 x[8] * x[23] - 10 x[8] * x[24] - 18 x[8] * x[25] - 8 x[8] * x[26]
   + 18 x[8] * x[27] - 8 x[8] * x[28] - 6 x[8] * x[29] + 12 x[8] * x[30]
   - 18 x[8] * x[31] + 20 x[8] * x[32] - 18 x[8] * x[33] - 14 x[8] * x[34]
   - 6 x[8] * x[35] - 12 x[8] * x[36] - 20 x[8] * x[37] - 14 x[8] * x[38]
   + 14 x[8] * x[39] - 2 x[8] * x[40] - 10 x[8] * x[41] - 18 x[8] * x[42]
   + 12 x[8] * x[43] - 10 x[8] * x[44] + 16 x[8] * x[45] - 6 x[8] * x[46]
   + 8 x[8] * x[47] - 4 x[8] * x[48] - 20 x[8] * x[49] + 20 x[8] * x[50]
   + 6 x[8] * x[51] + 18 x[8] * x[52] + 2 x[8] * x[54] - 14 x[8] * x[55]
   + 2 x[8] * x[56] + 16 x[8] * x[57] - 16 x[8] * x[58] + 16 x[8] * x[59]
   + 14 x[9] ^2 - 14 x[9] * x[10] - 10 x[9] * x[11] + 6 x[9] * x[12]
   - 20 x[9] * x[13] - 10 x[9] * x[14] - 4 x[9] * x[15] - 4 x[9] * x[16]
   + 12 x[9] * x[17] - 8 x[9] * x[18] - 6 x[9] * x[19] - 12 x[9] * x[20]
   - 8 x[9] * x[21] - 14 x[9] * x[22] + 14 x[9] * x[23] - 14 x[9] * x[24]
   + 16 x[9] * x[25] + 6 x[9] * x[26] - 20 x[9] * x[27] + 12 x[9] * x[28]
   - 20 x[9] * x[29] + 20 x[9] * x[30] + 12 x[9] * x[31] - 16 x[9] * x[32]
   + 18 x[9] * x[33] - 2 x[9] * x[34] - 16 x[9] * x[35] + 20 x[9] * x[36]
   - 6 x[9] * x[38] + 16 x[9] * x[39] - 6 x[9] * x[40] + 2 x[9] * x[41]
   - 14 x[9] * x[42] + 20 x[9] * x[43] + 2 x[9] * x[44] - 4 x[9] * x[45]
   - 4 x[9] * x[46] + 20 x[9] * x[47] - 12 x[9] * x[48] + 8 x[9] * x[49]
   - 6 x[9] * x[50] - 4 x[9] * x[51] + 20 x[9] * x[52] - 12 x[9] * x[54]
   - 14 x[9] * x[55] - 4 x[9] * x[56] + 16 x[9] * x[57] - 14 x[9] * x[58]
   - 14 x[9] * x[59] - 18 x[10] ^2 - 2 x[10] * x[11] + 12 x[10] * x[12]
   - 20 x[10] * x[13] + 4 x[10] * x[14] - 16 x[10] * x[15]
   - 4 x[10] * x[16] + 20 x[10] * x[17] + 4 x[10] * x[18]
   - 10 x[10] * x[19] - 12 x[10] * x[20] - 12 x[10] * x[21]
   - 12 x[10] * x[22] - 4 x[10] * x[23] - 18 x[10] * x[24]
   - 12 x[10] * x[25] + 4 x[10] * x[26] - 20 x[10] * x[27]
   + 4 x[10] * x[28] + 18 x[10] * x[29] - 20 x[10] * x[30]
   + 16 x[10] * x[31] + 12 x[10] * x[32] - 20 x[10] * x[33]
   - 4 x[10] * x[34] + 6 x[10] * x[35] - 14 x[10] * x[36]
   - 12 x[10] * x[37] - 14 x[10] * x[38] + 14 x[10] * x[39]
   + 8 x[10] * x[40] - 12 x[10] * x[41] - 10 x[10] * x[42]
   - 12 x[10] * x[44] + 16 x[10] * x[45] + 4 x[10] * x[46]
   + 6 x[10] * x[47] + 14 x[10] * x[48] - 14 x[10] * x[49]
   + 18 x[10] * x[50] - 18 x[10] * x[51] - 4 x[10] * x[52]
   - 16 x[10] * x[53] - 2 x[10] * x[55] - 6 x[10] * x[56]
   - 18 x[10] * x[57] - 2 x[10] * x[58] + 18 x[10] * x[59] + 14 x[11] ^2
   + 12 x[11] * x[12] - 14 x[11] * x[13] - 4 x[11] * x[14]
   + 4 x[11] * x[15] + 18 x[11] * x[16] + 14 x[11] * x[18]
   - 20 x[11] * x[19] + 8 x[11] * x[20] + 2 x[11] * x[21]
   - 20 x[11] * x[22] + 16 x[11] * x[23] + 12 x[11] * x[24]
   + 12 x[11] * x[25] + 14 x[11] * x[26] + 12 x[11] * x[28]
   - 10 x[11] * x[29] + 16 x[11] * x[30] - 12 x[11] * x[31]
   - 12 x[11] * x[32] + 10 x[11] * x[33] + 12 x[11] * x[34]
   - 20 x[11] * x[35] - 4 x[11] * x[36] + 20 x[11] * x[37]
   + 16 x[11] * x[38] + 10 x[11] * x[39] - 4 x[11] * x[40]
   - 4 x[11] * x[41] + 2 x[11] * x[42] - 12 x[11] * x[43] + 4 x[11] * x[44]
   + 20 x[11] * x[45] + 12 x[11] * x[46] - 2 x[11] * x[48]
   + 6 x[11] * x[49] - 14 x[11] * x[51] - 14 x[11] * x[52]
   - 20 x[11] * x[54] + 18 x[11] * x[55] - 8 x[11] * x[56]
   + 14 x[11] * x[57] - 4 x[11] * x[58] - 18 x[11] * x[59] - 6 x[12] ^2
   - 16 x[12] * x[13] + 10 x[12] * x[14] + 6 x[12] * x[15]
   + 18 x[12] * x[16] - 16 x[12] * x[17] + 14 x[12] * x[18]
   - 20 x[12] * x[19] - 6 x[12] * x[20] - 14 x[12] * x[22]
   + 6 x[12] * x[23] - 4 x[12] * x[24] + 6 x[12] * x[25] - 10 x[12] * x[26]
   - 4 x[12] * x[27] - 12 x[12] * x[28] - 10 x[12] * x[29]
   + 16 x[12] * x[30] + 16 x[12] * x[31] + 2 x[12] * x[33]
   + 20 x[12] * x[34] - 6 x[12] * x[35] + 20 x[12] * x[36]
   + 12 x[12] * x[37] - 14 x[12] * x[39] - 18 x[12] * x[40]
   - 6 x[12] * x[41] + 2 x[12] * x[42] - 2 x[12] * x[43] - 8 x[12] * x[45]
   - 18 x[12] * x[46] - 4 x[12] * x[47] - 4 x[12] * x[48]
   + 18 x[12] * x[49] - 2 x[12] * x[50] + 12 x[12] * x[51]
   - 4 x[12] * x[52] + 6 x[12] * x[53] - 2 x[12] * x[54] + 14 x[12] * x[55]
   - 8 x[12] * x[56] + 10 x[12] * x[57] - 12 x[12] * x[58] + 20 x[13] ^2
   + 18 x[13] * x[14] - 18 x[13] * x[15] + 6 x[13] * x[16]
   - 14 x[13] * x[17] - 20 x[13] * x[18] + 4 x[13] * x[19]
   - 16 x[13] * x[20] - 12 x[13] * x[21] - 18 x[13] * x[22]
   - 18 x[13] * x[23] - 2 x[13] * x[24] + 20 x[13] * x[25]
   - 2 x[13] * x[26] - 6 x[13] * x[27] - 12 x[13] * x[28] + 6 x[13] * x[29]
   + 14 x[13] * x[30] + 8 x[13] * x[31] - 14 x[13] * x[32]
   - 18 x[13] * x[33] - 4 x[13] * x[34] - 8 x[13] * x[35] + 4 x[13] * x[36]
   + 14 x[13] * x[37] + 8 x[13] * x[38] + 10 x[13] * x[39]
   - 20 x[13] * x[40] + 6 x[13] * x[41] + 16 x[13] * x[42]
   + 20 x[13] * x[43] + 6 x[13] * x[44] + 14 x[13] * x[45]
   - 18 x[13] * x[46] - 8 x[13] * x[47] - 20 x[13] * x[48]
   - 18 x[13] * x[49] + 18 x[13] * x[50] - 16 x[13] * x[51]
   - 10 x[13] * x[52] + 20 x[13] * x[53] - 14 x[13] * x[54]
   + 10 x[13] * x[55] + 20 x[13] * x[56] + 4 x[13] * x[57]
   - 18 x[13] * x[58] - 14 x[13] * x[59] - 2 x[14] ^2 - 20 x[14] * x[15]
   - 12 x[14] * x[16] + 12 x[14] * x[17] - 12 x[14] * x[18]
   - 18 x[14] * x[19] + 10 x[14] * x[20] - 18 x[14] * x[22]
   + 18 x[14] * x[23] + 10 x[14] * x[24] + 18 x[14] * x[25]
   + 16 x[14] * x[27] - 20 x[14] * x[28] + 14 x[14] * x[29]
   + 6 x[14] * x[30] - 14 x[14] * x[31] + 2 x[14] * x[32]
   + 10 x[14] * x[33] - 6 x[14] * x[34] - 8 x[14] * x[35]
   - 20 x[14] * x[36] + 6 x[14] * x[37] + 12 x[14] * x[38]
   - 8 x[14] * x[39] - 20 x[14] * x[40] - 12 x[14] * x[41]
   + 6 x[14] * x[42] + 2 x[14] * x[43] + 2 x[14] * x[44] - 16 x[14] * x[45]
   + 4 x[14] * x[46] + 10 x[14] * x[47] + 16 x[14] * x[48]
   + 14 x[14] * x[49] + 14 x[14] * x[50] + 4 x[14] * x[51]
   - 8 x[14] * x[52] + 16 x[14] * x[53] - 18 x[14] * x[55]
   + 12 x[14] * x[56] - 20 x[14] * x[57] + 20 x[14] * x[58]
   + 14 x[14] * x[59] - 16 x[15] ^2 - 16 x[15] * x[16] + 6 x[15] * x[17]
   - 4 x[15] * x[18] + 4 x[15] * x[19] - 16 x[15] * x[20] + 6 x[15] * x[21]
   + 16 x[15] * x[22] - 4 x[15] * x[23] - 14 x[15] * x[25]
   - 18 x[15] * x[26] + 8 x[15] * x[27] + 10 x[15] * x[28]
   - 4 x[15] * x[29] - 8 x[15] * x[30] - 12 x[15] * x[31]
   - 14 x[15] * x[32] + 2 x[15] * x[33] + 8 x[15] * x[34] + 6 x[15] * x[35]
   - 16 x[15] * x[36] + 4 x[15] * x[37] - 8 x[15] * x[38]
   - 16 x[15] * x[39] + 6 x[15] * x[40] + 20 x[15] * x[41]
   - 4 x[15] * x[42] + 2 x[15] * x[43] - 2 x[15] * x[44] + 6 x[15] * x[45]
   + 8 x[15] * x[46] + 4 x[15] * x[47] - 8 x[15] * x[48] - 16 x[15] * x[49]
   - 14 x[15] * x[50] - 4 x[15] * x[51] + 12 x[15] * x[52]
   - 18 x[15] * x[53] + 12 x[15] * x[54] - 10 x[15] * x[55]
   - 10 x[15] * x[56] + 16 x[15] * x[57] + 20 x[15] * x[58]
   + 20 x[15] * x[59] + 12 x[16] ^2 + 20 x[16] * x[17] + 18 x[16] * x[18]
   + 10 x[16] * x[19] - 2 x[16] * x[20] - 2 x[16] * x[21] + 6 x[16] * x[22]
   - 14 x[16] * x[23] - 10 x[16] * x[24] + 10 x[16] * x[25]
   - 6 x[16] * x[26] + 14 x[16] * x[27] + 8 x[16] * x[28] + 6 x[16] * x[29]
   - 6 x[16] * x[30] - 18 x[16] * x[31] - 6 x[16] * x[32]
   + 20 x[16] * x[33] + 4 x[16] * x[34] - 20 x[16] * x[36]
   + 14 x[16] * x[37] + 2 x[16] * x[38] - 12 x[16] * x[39]
   - 4 x[16] * x[40] + 20 x[16] * x[41] + 12 x[16] * x[42]
   - 18 x[16] * x[44] - 14 x[16] * x[45] + 16 x[16] * x[46]
   + 14 x[16] * x[47] - 16 x[16] * x[48] + 14 x[16] * x[49]
   + 4 x[16] * x[50] + 4 x[16] * x[51] - 8 x[16] * x[52] - 10 x[16] * x[53]
   + 10 x[16] * x[54] + 2 x[16] * x[55] - 20 x[16] * x[56]
   - 16 x[16] * x[57] - 6 x[16] * x[58] + 8 x[16] * x[59] + 14 x[17] ^2
   - 6 x[17] * x[18] - 16 x[17] * x[19] - 8 x[17] * x[20] - 4 x[17] * x[21]
   + 10 x[17] * x[22] + 2 x[17] * x[23] - 12 x[17] * x[24]
   - 16 x[17] * x[25] + 16 x[17] * x[26] + 8 x[17] * x[27]
   + 18 x[17] * x[28] + 18 x[17] * x[29] + 20 x[17] * x[30]
   + 16 x[17] * x[31] - 18 x[17] * x[32] - 12 x[17] * x[33]
   - 4 x[17] * x[35] - 14 x[17] * x[36] - 14 x[17] * x[37]
   + 18 x[17] * x[38] - 20 x[17] * x[39] + 16 x[17] * x[40]
   + 2 x[17] * x[41] + 18 x[17] * x[42] - 2 x[17] * x[43]
   + 14 x[17] * x[44] - 4 x[17] * x[45] - 16 x[17] * x[46]
   - 20 x[17] * x[47] - 10 x[17] * x[48] - 14 x[17] * x[50]
   + 4 x[17] * x[51] + 16 x[17] * x[52] + 18 x[17] * x[53]
   - 16 x[17] * x[54] - 16 x[17] * x[55] - 20 x[17] * x[56]
   - 20 x[17] * x[57] + 14 x[17] * x[58] + 18 x[17] * x[59] + 18 x[18] ^2
   + 8 x[18] * x[19] - 8 x[18] * x[20] - 12 x[18] * x[21] + 2 x[18] * x[22]
   + 14 x[18] * x[23] - 10 x[18] * x[24] - 10 x[18] * x[25]
   - 4 x[18] * x[26] - 8 x[18] * x[27] - 10 x[18] * x[28] - 6 x[18] * x[29]
   + 10 x[18] * x[31] + 10 x[18] * x[32] + 14 x[18] * x[33]
   + 6 x[18] * x[34] - 18 x[18] * x[35] - 8 x[18] * x[36] - 6 x[18] * x[37]
   - 14 x[18] * x[38] - 8 x[18] * x[39] - 18 x[18] * x[40]
   - 16 x[18] * x[41] - 16 x[18] * x[42] - 12 x[18] * x[43]
   + 20 x[18] * x[44] - 6 x[18] * x[45] + 8 x[18] * x[46]
   + 10 x[18] * x[47] - 16 x[18] * x[48] + 6 x[18] * x[49]
   - 2 x[18] * x[50] - 2 x[18] * x[51] + 16 x[18] * x[52]
   + 20 x[18] * x[53] - 10 x[18] * x[54] - 16 x[18] * x[55]
   - 12 x[18] * x[56] + 6 x[18] * x[57] - 2 x[18] * x[58] - 2 x[19] ^2
   - 16 x[19] * x[20] - 10 x[19] * x[21] + 12 x[19] * x[25]
   + 6 x[19] * x[26] - 2 x[19] * x[27] + 18 x[19] * x[28] + 6 x[19] * x[29]
   + 2 x[19] * x[30] - 6 x[19] * x[31] + 10 x[19] * x[32]
   + 20 x[19] * x[33] - 18 x[19] * x[34] + 20 x[19] * x[35]
   + 18 x[19] * x[36] - 10 x[19] * x[37] - 8 x[19] * x[38]
   + 8 x[19] * x[39] + 8 x[19] * x[40] + 4 x[19] * x[41] - 20 x[19] * x[43]
   - 14 x[19] * x[44] + 6 x[19] * x[45] - 20 x[19] * x[46]
   - 16 x[19] * x[47] - 2 x[19] * x[48] + 20 x[19] * x[49]
   + 2 x[19] * x[50] + 4 x[19] * x[51] - 12 x[19] * x[52]
   - 18 x[19] * x[53] - 18 x[19] * x[54] + 8 x[19] * x[55]
   + 14 x[19] * x[56] + 10 x[19] * x[57] - 14 x[19] * x[58]
   + 12 x[19] * x[59] + 6 x[20] ^2 + 4 x[20] * x[21] + 14 x[20] * x[22]
   - 8 x[20] * x[23] + 2 x[20] * x[24] + 2 x[20] * x[25] - 18 x[20] * x[26]
   - 16 x[20] * x[27] - 6 x[20] * x[28] + 20 x[20] * x[29]
   - 10 x[20] * x[30] + 8 x[20] * x[31] - 10 x[20] * x[32]
   + 10 x[20] * x[33] - 16 x[20] * x[34] + 2 x[20] * x[35]
   + 18 x[20] * x[36] + 8 x[20] * x[37] - 18 x[20] * x[38]
   - 2 x[20] * x[40] + 14 x[20] * x[41] + 18 x[20] * x[42]
   - 4 x[20] * x[43] - 2 x[20] * x[44] + 12 x[20] * x[45]
   + 10 x[20] * x[46] + 20 x[20] * x[47] - 14 x[20] * x[48]
   - 16 x[20] * x[49] - 10 x[20] * x[50] + 14 x[20] * x[51]
   + 8 x[20] * x[52] - 16 x[20] * x[53] - 16 x[20] * x[54]
   - 10 x[20] * x[55] + 6 x[20] * x[56] - 12 x[20] * x[57]
   - 6 x[20] * x[58] - 20 x[20] * x[59] + 18 x[21] ^2 + 8 x[21] * x[22]
   + 14 x[21] * x[23] - 14 x[21] * x[24] + 12 x[21] * x[25]
   - 10 x[21] * x[26] + 12 x[21] * x[27] + 8 x[21] * x[28]
   + 8 x[21] * x[29] + 8 x[21] * x[30] - 16 x[21] * x[31]
   - 18 x[21] * x[32] - 6 x[21] * x[33] + 2 x[21] * x[34] - 6 x[21] * x[35]
   + 14 x[21] * x[36] - 4 x[21] * x[37] + 16 x[21] * x[38]
   + 14 x[21] * x[39] - 4 x[21] * x[40] + 6 x[21] * x[41] + 2 x[21] * x[42]
   + 6 x[21] * x[43] + 20 x[21] * x[44] + 12 x[21] * x[45]
   + 14 x[21] * x[46] - 20 x[21] * x[47] + 10 x[21] * x[48]
   - 12 x[21] * x[49] - 8 x[21] * x[50] + 2 x[21] * x[51]
   - 14 x[21] * x[52] - 20 x[21] * x[53] - 4 x[21] * x[54]
   - 6 x[21] * x[55] + 12 x[21] * x[56] + 8 x[21] * x[57]
   - 16 x[21] * x[58] - 2 x[21] * x[59] + 4 x[22] ^2 + 18 x[22] * x[23]
   - 6 x[22] * x[24] - 18 x[22] * x[25] - 10 x[22] * x[26]
   - 2 x[22] * x[27] + 6 x[22] * x[28] - 4 x[22] * x[29] + 2 x[22] * x[30]
   + 10 x[22] * x[31] - 12 x[22] * x[32] - 2 x[22] * x[33]
   + 8 x[22] * x[34] - 4 x[22] * x[35] + 6 x[22] * x[36] - 12 x[22] * x[37]
   + 16 x[22] * x[38] + 20 x[22] * x[39] - 18 x[22] * x[40]
   + 8 x[22] * x[41] - 12 x[22] * x[42] + 2 x[22] * x[43]
   - 14 x[22] * x[44] + 14 x[22] * x[45] + 8 x[22] * x[46]
   - 6 x[22] * x[47] - 8 x[22] * x[48] + 18 x[22] * x[49]
   + 20 x[22] * x[50] - 6 x[22] * x[51] - 8 x[22] * x[52] + 4 x[22] * x[53]
   - 10 x[22] * x[54] + 6 x[22] * x[55] + 6 x[22] * x[56]
   - 16 x[22] * x[58] - 10 x[22] * x[59] - 20 x[23] ^2 - 6 x[23] * x[24]
   - 14 x[23] * x[25] - 8 x[23] * x[26] - 6 x[23] * x[27]
   + 20 x[23] * x[28] - 14 x[23] * x[29] - 16 x[23] * x[30]
   + 8 x[23] * x[31] - 2 x[23] * x[32] + 6 x[23] * x[33] - 2 x[23] * x[34]
   + 14 x[23] * x[35] - 14 x[23] * x[36] + 10 x[23] * x[37]
   - 2 x[23] * x[38] - 2 x[23] * x[39] - 10 x[23] * x[40]
   + 10 x[23] * x[41] + 16 x[23] * x[42] + 18 x[23] * x[43]
   + 6 x[23] * x[44] + 12 x[23] * x[45] - 18 x[23] * x[46]
   + 10 x[23] * x[47] - 4 x[23] * x[48] - 10 x[23] * x[49]
   + 6 x[23] * x[50] - 10 x[23] * x[51] + 10 x[23] * x[52]
   + 8 x[23] * x[53] - 10 x[23] * x[54] - 18 x[23] * x[55]
   + 14 x[23] * x[56] + 4 x[23] * x[57] - 4 x[23] * x[58]
   + 14 x[23] * x[59] + 6 x[24] ^2 + 20 x[24] * x[25] + 4 x[24] * x[26]
   + 14 x[24] * x[27] - 18 x[24] * x[28] + 6 x[24] * x[29]
   - 6 x[24] * x[30] + 20 x[24] * x[31] - 12 x[24] * x[32]
   + 6 x[24] * x[33] + 16 x[24] * x[34] + 20 x[24] * x[35]
   + 6 x[24] * x[36] + 8 x[24] * x[37] + 6 x[24] * x[38] - 18 x[24] * x[39]
   + 2 x[24] * x[40] + 16 x[24] * x[41] - 6 x[24] * x[42] + 8 x[24] * x[43]
   - 6 x[24] * x[44] + 14 x[24] * x[45] + 12 x[24] * x[46]
   + 12 x[24] * x[47] + 8 x[24] * x[48] + 20 x[24] * x[49]
   + 20 x[24] * x[50] + 6 x[24] * x[52] + 12 x[24] * x[53]
   - 16 x[24] * x[54] - 8 x[24] * x[55] + 10 x[24] * x[56]
   + 10 x[24] * x[57] - 14 x[24] * x[58] + 14 x[24] * x[59] - 18 x[25] ^2
   - 20 x[25] * x[26] - 14 x[25] * x[27] - 18 x[25] * x[28]
   + 6 x[25] * x[29] - 12 x[25] * x[30] - 4 x[25] * x[32]
   - 16 x[25] * x[33] + 14 x[25] * x[34] - 8 x[25] * x[35]
   - 12 x[25] * x[36] + 14 x[25] * x[37] + 4 x[25] * x[38]
   - 4 x[25] * x[39] - 10 x[25] * x[40] - 20 x[25] * x[41]
   - 10 x[25] * x[42] - 16 x[25] * x[43] + 6 x[25] * x[44]
   - 4 x[25] * x[45] - 18 x[25] * x[46] - 14 x[25] * x[47]
   + 14 x[25] * x[48] - 6 x[25] * x[49] - 4 x[25] * x[50] - 4 x[25] * x[51]
   - 10 x[25] * x[52] - 16 x[25] * x[53] - 4 x[25] * x[54]
   - 14 x[25] * x[55] - 14 x[25] * x[56] - 4 x[25] * x[57]
   - 6 x[25] * x[58] - 10 x[25] * x[59] - 18 x[26] ^2 - 2 x[26] * x[27]
   + 10 x[26] * x[28] - 6 x[26] * x[29] + 6 x[26] * x[30] + 6 x[26] * x[31]
   + 20 x[26] * x[32] - 18 x[26] * x[33] - 12 x[26] * x[34]
   + 20 x[26] * x[35] - 18 x[26] * x[36] + 4 x[26] * x[37]
   + 20 x[26] * x[38] - 20 x[26] * x[39] + 14 x[26] * x[40]
   - 14 x[26] * x[41] + 12 x[26] * x[42] - 8 x[26] * x[43]
   + 18 x[26] * x[44] + 10 x[26] * x[45] - 10 x[26] * x[46]
   - 6 x[26] * x[47] - 10 x[26] * x[48] + 16 x[26] * x[49]
   + 8 x[26] * x[50] + 10 x[26] * x[51] - 16 x[26] * x[53]
   - 8 x[26] * x[54] + 8 x[26] * x[55] - 4 x[26] * x[56] - 4 x[26] * x[57]
   - 14 x[26] * x[58] - 14 x[26] * x[59] - 14 x[27] ^2 + 20 x[27] * x[28]
   + 18 x[27] * x[29] + 16 x[27] * x[30] + 14 x[27] * x[31]
   + 18 x[27] * x[32] + 4 x[27] * x[33] - 16 x[27] * x[34]
   + 12 x[27] * x[35] - 18 x[27] * x[36] - 18 x[27] * x[37]
   - 4 x[27] * x[38] + 20 x[27] * x[39] - 18 x[27] * x[40]
   - 12 x[27] * x[41] + 6 x[27] * x[42] + 16 x[27] * x[43]
   + 12 x[27] * x[44] + 12 x[27] * x[45] - 18 x[27] * x[46]
   - 6 x[27] * x[47] + 10 x[27] * x[48] - 8 x[27] * x[49]
   - 10 x[27] * x[50] + 14 x[27] * x[51] + 8 x[27] * x[52]
   + 6 x[27] * x[53] + 14 x[27] * x[54] - 20 x[27] * x[55]
   - 6 x[27] * x[56] - 2 x[27] * x[57] - 14 x[27] * x[58] - 8 x[27] * x[59]
   + 20 x[28] ^2 - 16 x[28] * x[29] - 4 x[28] * x[30] - 16 x[28] * x[31]
   - 6 x[28] * x[32] - 14 x[28] * x[33] + 10 x[28] * x[34]
   - 8 x[28] * x[35] - 10 x[28] * x[36] + 6 x[28] * x[37]
   + 10 x[28] * x[38] + 2 x[28] * x[39] + 20 x[28] * x[40]
   - 20 x[28] * x[41] + 10 x[28] * x[42] - 20 x[28] * x[43]
   - 2 x[28] * x[44] + 4 x[28] * x[45] - 4 x[28] * x[46] + 2 x[28] * x[47]
   - 20 x[28] * x[48] - 10 x[28] * x[49] + 10 x[28] * x[50]
   - 6 x[28] * x[51] + 6 x[28] * x[52] - 6 x[28] * x[53] - 18 x[28] * x[54]
   + 10 x[28] * x[55] - 2 x[28] * x[57] - 18 x[28] * x[58]
   - 2 x[28] * x[59] - 2 x[29] ^2 + 18 x[29] * x[30] + 16 x[29] * x[31]
   + 8 x[29] * x[32] + 2 x[29] * x[33] + 4 x[29] * x[34] + 16 x[29] * x[35]
   - 6 x[29] * x[36] - 8 x[29] * x[37] - 4 x[29] * x[38] - 20 x[29] * x[39]
   - 8 x[29] * x[40] + 16 x[29] * x[41] + 20 x[29] * x[43]
   - 18 x[29] * x[44] - 14 x[29] * x[45] + 16 x[29] * x[46]
   - 8 x[29] * x[47] - 14 x[29] * x[48] + 12 x[29] * x[49]
   - 20 x[29] * x[50] + 16 x[29] * x[51] + 12 x[29] * x[52]
   + 10 x[29] * x[53] + 16 x[29] * x[54] - 4 x[29] * x[55]
   + 20 x[29] * x[56] - 20 x[29] * x[57] - 12 x[29] * x[58]
   - 18 x[29] * x[59] + 2 x[30] ^2 - 20 x[30] * x[31] + 16 x[30] * x[32]
   + 8 x[30] * x[33] - 4 x[30] * x[34] + 10 x[30] * x[35]
   - 20 x[30] * x[36] - 12 x[30] * x[37] - 6 x[30] * x[38]
   - 6 x[30] * x[39] + 12 x[30] * x[40] + 16 x[30] * x[41]
   - 16 x[30] * x[43] - 12 x[30] * x[44] - 8 x[30] * x[45]
   + 20 x[30] * x[46] - 8 x[30] * x[47] - 18 x[30] * x[48]
   - 6 x[30] * x[49] - 16 x[30] * x[50] - 16 x[30] * x[51]
   - 10 x[30] * x[52] - 14 x[30] * x[53] + 8 x[30] * x[55]
   + 6 x[30] * x[56] + 20 x[30] * x[57] - 10 x[30] * x[58]
   + 8 x[30] * x[59] - 18 x[31] ^2 + 18 x[31] * x[32] - 4 x[31] * x[33]
   + 10 x[31] * x[34] - 12 x[31] * x[36] + 8 x[31] * x[37]
   + 10 x[31] * x[38] + 10 x[31] * x[39] + 14 x[31] * x[40]
   + 18 x[31] * x[41] - 20 x[31] * x[42] + 2 x[31] * x[43]
   - 14 x[31] * x[44] - 14 x[31] * x[45] - 18 x[31] * x[46]
   + 6 x[31] * x[47] + 10 x[31] * x[48] - 16 x[31] * x[49]
   + 20 x[31] * x[50] + 6 x[31] * x[51] + 16 x[31] * x[52]
   + 14 x[31] * x[53] - 2 x[31] * x[54] - 12 x[31] * x[55]
   + 20 x[31] * x[56] + 6 x[31] * x[57] + 4 x[31] * x[58] - 4 x[31] * x[59]
   - 2 x[32] ^2 - 4 x[32] * x[33] - 6 x[32] * x[34] + 6 x[32] * x[35]
   - 16 x[32] * x[36] + 2 x[32] * x[37] + 2 x[32] * x[38]
   + 18 x[32] * x[39] - 18 x[32] * x[40] + 10 x[32] * x[41]
   - 16 x[32] * x[43] - 14 x[32] * x[44] + 2 x[32] * x[45]
   - 2 x[32] * x[46] + 12 x[32] * x[47] - 2 x[32] * x[48] - 2 x[32] * x[49]
   - 2 x[32] * x[50] + 14 x[32] * x[51] + 4 x[32] * x[52] + 6 x[32] * x[53]
   - 14 x[32] * x[54] + 2 x[32] * x[55] + 14 x[32] * x[56]
   + 10 x[32] * x[57] - 12 x[32] * x[58] - 12 x[32] * x[59] + 4 x[33] ^2
   - 8 x[33] * x[34] - 14 x[33] * x[35] - 16 x[33] * x[36]
   - 14 x[33] * x[37] - 8 x[33] * x[38] - 20 x[33] * x[39]
   - 8 x[33] * x[40] - 14 x[33] * x[41] + 8 x[33] * x[42]
   - 14 x[33] * x[43] - 10 x[33] * x[44] + 20 x[33] * x[45]
   - 6 x[33] * x[46] - 16 x[33] * x[47] + 20 x[33] * x[48]
   - 4 x[33] * x[49] + 8 x[33] * x[50] - 2 x[33] * x[51] + 4 x[33] * x[52]
   - 12 x[33] * x[53] + 16 x[33] * x[54] + 8 x[33] * x[55]
   - 6 x[33] * x[56] - 18 x[33] * x[57] + 18 x[33] * x[58]
   - 12 x[33] * x[59] + 18 x[34] ^2 - 12 x[34] * x[35] - 18 x[34] * x[36]
   + 16 x[34] * x[37] + 6 x[34] * x[38] + 10 x[34] * x[39]
   + 8 x[34] * x[40] + 10 x[34] * x[41] + 6 x[34] * x[43]
   - 12 x[34] * x[44] + 12 x[34] * x[45] - 2 x[34] * x[46]
   - 10 x[34] * x[47] + 10 x[34] * x[49] - 12 x[34] * x[50]
   + 10 x[34] * x[51] - 4 x[34] * x[52] - 8 x[34] * x[53]
   - 18 x[34] * x[54] - 10 x[34] * x[55] + 20 x[34] * x[56]
   - 12 x[34] * x[57] + 2 x[34] * x[58] - 18 x[34] * x[59] - 14 x[35] ^2
   + 10 x[35] * x[36] + 18 x[35] * x[37] - 4 x[35] * x[38]
   - 16 x[35] * x[39] - 16 x[35] * x[40] + 18 x[35] * x[41]
   - 4 x[35] * x[42] - 20 x[35] * x[43] + 18 x[35] * x[44]
   - 8 x[35] * x[45] - 20 x[35] * x[46] + 12 x[35] * x[47]
   + 18 x[35] * x[48] - 2 x[35] * x[49] - 4 x[35] * x[50] - 2 x[35] * x[51]
   + 12 x[35] * x[52] + 16 x[35] * x[53] + 10 x[35] * x[54]
   + 14 x[35] * x[55] + 6 x[35] * x[56] - 20 x[35] * x[57]
   + 16 x[35] * x[58] + 18 x[35] * x[59] + 16 x[36] * x[38]
   + 2 x[36] * x[39] - 12 x[36] * x[40] + 16 x[36] * x[42]
   - 10 x[36] * x[43] - 8 x[36] * x[44] - 18 x[36] * x[45]
   - 4 x[36] * x[46] - 12 x[36] * x[47] + 12 x[36] * x[48]
   + 14 x[36] * x[50] - 18 x[36] * x[51] - 2 x[36] * x[52]
   - 14 x[36] * x[53] + 2 x[36] * x[54] - 2 x[36] * x[55]
   - 14 x[36] * x[56] + 10 x[36] * x[57] - 4 x[36] * x[58]
   + 4 x[36] * x[59] - 18 x[37] ^2 - 2 x[37] * x[38] + 18 x[37] * x[39]
   + 6 x[37] * x[40] - 4 x[37] * x[41] + 14 x[37] * x[42]
   + 18 x[37] * x[43] - 20 x[37] * x[44] + 4 x[37] * x[45]
   - 6 x[37] * x[46] - 4 x[37] * x[47] + 10 x[37] * x[48] - 4 x[37] * x[49]
   + 10 x[37] * x[50] - 20 x[37] * x[51] - 2 x[37] * x[52]
   + 6 x[37] * x[53] + 16 x[37] * x[54] - 2 x[37] * x[55] - 8 x[37] * x[56]
   - 14 x[37] * x[57] - 6 x[37] * x[58] + 2 x[37] * x[59] - 8 x[38] ^2
   - 6 x[38] * x[39] - 2 x[38] * x[40] + 2 x[38] * x[41] - 6 x[38] * x[42]
   + 18 x[38] * x[43] + 12 x[38] * x[44] - 4 x[38] * x[45]
   + 10 x[38] * x[46] + 10 x[38] * x[47] - 6 x[38] * x[48]
   - 2 x[38] * x[49] + 8 x[38] * x[50] - 2 x[38] * x[51] - 4 x[38] * x[52]
   - 16 x[38] * x[53] - 14 x[38] * x[55] + 18 x[38] * x[56]
   - 14 x[38] * x[57] - 20 x[38] * x[58] + 4 x[38] * x[59] - 4 x[39] ^2
   - 12 x[39] * x[40] + 18 x[39] * x[41] - 20 x[39] * x[42]
   - 18 x[39] * x[43] + 14 x[39] * x[44] + 6 x[39] * x[45]
   + 6 x[39] * x[46] - 12 x[39] * x[47] + 14 x[39] * x[48]
   - 14 x[39] * x[49] - 20 x[39] * x[50] + 10 x[39] * x[51]
   + 6 x[39] * x[52] + 12 x[39] * x[53] + 14 x[39] * x[54]
   + 20 x[39] * x[55] - 4 x[39] * x[56] + 18 x[39] * x[57]
   + 14 x[39] * x[58] + 2 x[39] * x[59] + 10 x[40] ^2 + 18 x[40] * x[41]
   - 6 x[40] * x[42] - 10 x[40] * x[43] - 8 x[40] * x[44]
   - 12 x[40] * x[45] - 8 x[40] * x[46] + 20 x[40] * x[47]
   + 4 x[40] * x[48] + 16 x[40] * x[49] - 12 x[40] * x[50]
   - 4 x[40] * x[51] + 8 x[40] * x[52] + 8 x[40] * x[53] - 18 x[40] * x[54]
   - 18 x[40] * x[55] - 4 x[40] * x[56] - 8 x[40] * x[57]
   + 10 x[40] * x[58] - 4 x[40] * x[59] - 2 x[41] ^2 - 14 x[41] * x[42]
   - 18 x[41] * x[43] + 6 x[41] * x[44] + 6 x[41] * x[46] - 6 x[41] * x[47]
   + 16 x[41] * x[48] + 18 x[41] * x[49] - 18 x[41] * x[50]
   + 2 x[41] * x[51] + 4 x[41] * x[52] - 14 x[41] * x[53]
   + 10 x[41] * x[54] - 6 x[41] * x[55] - 18 x[41] * x[56]
   + 4 x[41] * x[57] + 4 x[41] * x[58] - 4 x[41] * x[59] + 14 x[42] ^2
   + 18 x[42] * x[44] - 20 x[42] * x[45] - 12 x[42] * x[46]
   - 8 x[42] * x[47] + 2 x[42] * x[48] - 16 x[42] * x[49] - 4 x[42] * x[50]
   + 14 x[42] * x[51] + 12 x[42] * x[52] + 8 x[42] * x[53]
   + 6 x[42] * x[54] + 12 x[42] * x[55] + 18 x[42] * x[56]
   - 16 x[42] * x[57] + 12 x[42] * x[58] + 8 x[42] * x[59]
   - 2 x[43] * x[44] - 14 x[43] * x[45] + 18 x[43] * x[46]
   - 20 x[43] * x[47] + 6 x[43] * x[48] - 8 x[43] * x[49] - 6 x[43] * x[50]
   + 2 x[43] * x[51] - 6 x[43] * x[52] - 16 x[43] * x[53]
   + 20 x[43] * x[54] + 16 x[43] * x[56] - 10 x[43] * x[57]
   + 12 x[43] * x[58] + 10 x[43] * x[59] + 20 x[44] ^2 + 8 x[44] * x[45]
   + 4 x[44] * x[46] + 12 x[44] * x[47] - 2 x[44] * x[48]
   + 18 x[44] * x[49] - 18 x[44] * x[50] + 18 x[44] * x[51]
   - 8 x[44] * x[52] + 2 x[44] * x[53] + 18 x[44] * x[54] - 8 x[44] * x[55]
   + 14 x[44] * x[56] - 8 x[44] * x[58] - 14 x[44] * x[59] + 12 x[45] ^2
   + 14 x[45] * x[46] - 10 x[45] * x[47] + 6 x[45] * x[48]
   - 20 x[45] * x[49] - 18 x[45] * x[50] - 2 x[45] * x[51]
   + 8 x[45] * x[52] - 6 x[45] * x[53] - 2 x[45] * x[54] + 4 x[45] * x[55]
   - 20 x[45] * x[56] + 8 x[45] * x[57] + 4 x[45] * x[58]
   + 14 x[45] * x[59] - 14 x[46] ^2 - 10 x[46] * x[47] - 18 x[46] * x[48]
   - 18 x[46] * x[49] + 6 x[46] * x[50] + 18 x[46] * x[51]
   - 2 x[46] * x[52] + 18 x[46] * x[53] + 4 x[46] * x[54] - 8 x[46] * x[55]
   - 10 x[46] * x[56] - 12 x[46] * x[57] + 20 x[46] * x[58]
   - 4 x[46] * x[59] - 18 x[47] ^2 - 16 x[47] * x[48] + 6 x[47] * x[50]
   - 12 x[47] * x[51] - 6 x[47] * x[52] + 4 x[47] * x[53]
   + 10 x[47] * x[54] + 4 x[47] * x[55] + 18 x[47] * x[56]
   + 16 x[47] * x[57] - 16 x[47] * x[58] - 10 x[47] * x[59] - 16 x[48] ^2
   + 14 x[48] * x[49] - 18 x[48] * x[50] - 16 x[48] * x[51]
   - 6 x[48] * x[52] - 4 x[48] * x[53] + 8 x[48] * x[54] + 2 x[48] * x[55]
   - 2 x[48] * x[56] + 16 x[48] * x[57] - 6 x[48] * x[59] + 4 x[49] ^2
   - 8 x[49] * x[51] - 4 x[49] * x[52] + 8 x[49] * x[53] + 4 x[49] * x[54]
   - 14 x[49] * x[55] + 12 x[49] * x[56] + 8 x[49] * x[57]
   + 16 x[49] * x[58] + 20 x[49] * x[59] - 16 x[50] ^2 + 16 x[50] * x[51]
   + 12 x[50] * x[52] - 10 x[50] * x[53] + 8 x[50] * x[54]
   + 8 x[50] * x[55] + 2 x[50] * x[56] - 20 x[50] * x[57]
   - 16 x[50] * x[58] - 20 x[50] * x[59] - 10 x[51] ^2 - 16 x[51] * x[52]
   + 20 x[51] * x[53] + 2 x[51] * x[54] + 20 x[51] * x[55]
   + 18 x[51] * x[56] - 6 x[51] * x[57] - 14 x[51] * x[58]
   + 16 x[51] * x[59] + 12 x[52] ^2 + 20 x[52] * x[53] + 18 x[52] * x[54]
   - 18 x[52] * x[55] - 20 x[52] * x[57] + 10 x[52] * x[58]
   - 10 x[52] * x[59] - 10 x[53] ^2 + 20 x[53] * x[55] + 6 x[53] * x[56]
   - 10 x[53] * x[57] - 4 x[53] * x[58] + 10 x[53] * x[59] + 14 x[54] ^2
   + 8 x[54] * x[55] + 6 x[54] * x[56] - 6 x[54] * x[57] - 14 x[54] * x[58]
   - 14 x[54] * x[59] + 2 x[55] ^2 + 16 x[55] * x[56] - 10 x[55] * x[57]
   - 20 x[55] * x[58] + 16 x[55] * x[59] - 16 x[56] ^2 - 10 x[56] * x[57]
   + 16 x[56] * x[58] - 4 x[56] * x[59] + 20 x[57] ^2 + 16 x[57] * x[58]
   - 2 x[57] * x[59] - 8 x[58] ^2 - 14 x[58] * x[59] - 20 x[59] ^2 ] / 2 
Subject To
 x_1,12,14: x[0] + x[11] + x[13] <= 2
 x_2,23,27: x[1] + x[22] + x[26] <= 2
 x_3,34,40: x[2] + x[33] + x[39] <= 2
 x_4,45,53: x[3] + x[44] + x[52] <= 2
 x_5,6,56: x[4] + x[5] + x[55] <= 2
 x_6,7,19: x[5] + x[6] + x[18] <= 2
 x_7,18,32: x[6] + x[17] + x[31] <= 2
 x_8,29,45: x[7] + x[28] + x[44] <= 2
 x_9,40,58: x[8] + x[39] + x[57] <= 2
 x_10,11,51: x[9] + x[10] + x[50] <= 2
 x_2,11,24: x[1] + x[10] + x[23] <= 2
 x_12,13,37: x[11] + x[12] + x[36] <= 2
 x_13,24,50: x[12] + x[23] + x[49] <= 2
 x_3,14,35: x[2] + x[13] + x[34] <= 2
 x_15,16,46: x[14] + x[15] + x[45] <= 2
 x_16,29,57: x[15] + x[28] + x[56] <= 2
 x_8,17,42: x[7] + x[16] + x[41] <= 2
 x_18,19,55: x[17] + x[18] + x[54] <= 2
 x_8,19,30: x[7] + x[18] + x[29] <= 2
 x_20,21,41: x[19] + x[20] + x[40] <= 2
 x_21,34,52: x[20] + x[33] + x[51] <= 2
 x_3,22,47: x[2] + x[21] + x[46] <= 2
 x_14,23,60: x[13] + x[22] + x[59] <= 2
 x_13,24,25: x[12] + x[23] + x[24] <= 2
 x_25,26,36: x[24] + x[25] + x[35] <= 2
 x_26,39,47: x[25] + x[38] + x[46] <= 2
 x_27,52,58: x[26] + x[51] + x[57] <= 2
 x_5,9,28: x[4] + x[8] + x[27] <= 2
 x_18,20,29: x[17] + x[19] + x[28] <= 2
 x_30,31,32: x[29] + x[30] + x[31] <= 2
 x_31,42,44: x[30] + x[41] + x[43] <= 2
 x_32,53,57: x[31] + x[52] + x[56] <= 2
 x_4,10,33: x[3] + x[9] + x[32] <= 2
 x_15,23,34: x[14] + x[22] + x[33] <= 2
 x_26,35,36: x[25] + x[34] + x[35] <= 2
 x_36,37,49: x[35] + x[36] + x[48] <= 2
 x_2,37,48: x[1] + x[36] + x[47] <= 2
 x_15,38,59: x[14] + x[37] + x[58] <= 2
 x_10,28,39: x[9] + x[27] + x[38] <= 2
 x_21,40,41: x[20] + x[39] + x[40] <= 2
 x_32,41,54: x[31] + x[40] + x[53] <= 2
 x_7,42,43: x[6] + x[41] + x[42] <= 2
 x_20,43,54: x[19] + x[42] + x[53] <= 2
 x_5,33,44: x[4] + x[32] + x[43] <= 2
 x_16,45,46: x[15] + x[44] + x[45] <= 2
 x_27,46,59: x[26] + x[45] + x[58] <= 2
 x_12,38,47: x[11] + x[37] + x[46] <= 2
 x_25,48,49: x[24] + x[47] + x[48] <= 2
 x_38,49,60: x[37] + x[48] + x[59] <= 2
 x_11,50,51: x[10] + x[49] + x[50] <= 2
 x_4,22,51: x[3] + x[21] + x[50] <= 2
 x_17,33,52: x[16] + x[32] + x[51] <= 2
 x_30,44,53: x[29] + x[43] + x[52] <= 2
 x_43,54,55: x[42] + x[53] + x[54] <= 2
 x_6,55,56: x[5] + x[54] + x[55] <= 2
 x_9,17,56: x[8] + x[16] + x[55] <= 2
 x_22,28,57: x[21] + x[27] + x[56] <= 2
 x_35,39,58: x[34] + x[38] + x[57] <= 2
 x_48,50,59: x[47] + x[49] + x[58] <= 2
 x_1,2,60: x[0] + x[1] + x[59] <= 2
Bounds
Binaries
 x[0] x[1] x[2] x[3] x[4] x[5] x[6] x[7] x[8] x[9] x[10] x[11] x[12] x[13]
 x[14] x[15] x[16] x[17] x[18] x[19] x[20] x[21] x[22] x[23] x[24] x[25]
 x[26] x[27] x[28] x[29] x[30] x[31] x[32] x[33] x[34] x[35] x[36] x[37]
 x[38] x[39] x[40] x[41] x[42] x[43] x[44] x[45] x[46] x[47] x[48] x[49]
 x[50] x[51] x[52] x[53] x[54] x[55] x[56] x[57] x[58] x[59]
End
